treewidth/data/HoffmanGraph.gr
p tw 16 32
1 2
1 14
1 15
1 6
2 9
2 16
2 7
9 10
9 15
9 3
10 11
10 16
10 8
11 12
11 3
11 4
12 13
12 5
12 7
13 14
13 4
13 6
14 5
14 8
15 5
15 7
16 4
16 6
3 5
3 8
4 7
6 8
