treewidth/data/HoffmanGraph.td
c width = 6, time = 0.147689
s td 9 7 16
b 1 1 5 6 8 13 14 16
b 2 1 5 7 8 9 13 16
b 3 1 2 7 9 16
b 4 5 7 8 9 11 13 16
b 5 3 5 8 9 11
b 6 4 7 11 13 16
b 7 8 9 10 11 16
b 8 5 7 11 12 13
b 9 1 5 7 9 15
2 3
4 5
4 6
4 7
4 8
2 4
2 9
1 2
